NAME : ST69C
TYPE : PDTSP
DIMENSION : 69
EDGE_WEIGHT_TYPE : EUC_2D
NODE_COORD_SECTION
1 64 96
2 80 39
3 69 23
4 72 42
5 48 67
6 58 43
7 81 34
8 79 17
9 30 23
10 42 67
11 7 76
12 29 51
13 78 92
14 64 8
15 95 57
16 57 91
17 40 35
18 68 40
19 92 34
20 62 1
21 28 43
22 76 73
23 67 88
24 93 54
25 6 8
26 87 18
27 30 9
28 77 13
29 78 94
30 55 3
31 82 88
32 73 28
33 20 55
34 27 43
35 95 86
36 67 99
37 48 83
38 75 81
39 8 19
40 20 18
41 54 38
42 63 36
43 44 33
44 52 18
45 12 13
46 25 5
47 58 85
48 5 67
49 90 9
50 41 76
51 25 76
52 37 64
53 10 55
54 98 7
55 16 74
56 89 60
57 48 82
58 81 76
59 29 60
60 17 22
61 5 45
62 79 70
63 9 100
64 17 82
65 74 67
66 10 68
67 48 19
68 83 86
69 84 94
PICKUP_AND_DELIVERY_SECTION
1 0 0 0 0 0 0
2 0 0 0 0 0 31
3 0 0 0 0 4 0
4 0 0 0 0 0 3
5 0 0 0 0 0 67
6 0 0 0 0 36 0
7 0 0 0 0 24 0
8 0 0 0 0 50 0
9 0 0 0 0 10 0
10 0 0 0 0 0 9
11 0 0 0 0 60 0
12 0 0 0 0 58 0
13 0 0 0 0 0 47
14 0 0 0 0 25 0
15 0 0 0 0 0 48
16 0 0 0 0 0 19
17 0 0 0 0 32 0
18 0 0 0 0 0 22
19 0 0 0 0 16 0
20 0 0 0 0 56 0
21 0 0 0 0 53 0
22 0 0 0 0 18 0
23 0 0 0 0 0 63
24 0 0 0 0 0 7
25 0 0 0 0 0 14
26 0 0 0 0 28 0
27 0 0 0 0 44 0
28 0 0 0 0 0 26
29 0 0 0 0 0 61
30 0 0 0 0 68 0
31 0 0 0 0 2 0
32 0 0 0 0 0 17
33 0 0 0 0 0 40
34 0 0 0 0 0 55
35 0 0 0 0 52 0
36 0 0 0 0 0 6
37 0 0 0 0 59 0
38 0 0 0 0 66 0
39 0 0 0 0 0 69
40 0 0 0 0 33 0
41 0 0 0 0 57 0
42 0 0 0 0 0 54
43 0 0 0 0 0 45
44 0 0 0 0 0 27
45 0 0 0 0 43 0
46 0 0 0 0 62 0
47 0 0 0 0 13 0
48 0 0 0 0 15 0
49 0 0 0 0 0 51
50 0 0 0 0 0 8
51 0 0 0 0 49 0
52 0 0 0 0 0 35
53 0 0 0 0 0 21
54 0 0 0 0 42 0
55 0 0 0 0 34 0
56 0 0 0 0 0 20
57 0 0 0 0 0 41
58 0 0 0 0 0 12
59 0 0 0 0 0 37
60 0 0 0 0 0 11
61 0 0 0 0 29 0
62 0 0 0 0 0 46
63 0 0 0 0 23 0
64 0 0 0 0 65 0
65 0 0 0 0 0 64
66 0 0 0 0 0 38
67 0 0 0 0 5 0
68 0 0 0 0 0 30
69 0 0 0 0 39 0
DEPOT_SECTION
1 
-1
EOF
